Optimizer called with the following parameters:
{'focal_plane_mask': {'field_stop_radius': 14.5,
                      'grayscale': True,
                      'num_pix': 150,
                      'radius': 3.9000000000000004},
 'image': {'bandwidth': 0.1,
           'contrast': 10,
           'iwa': 3.8000000000000003,
           'num_wavelengths': 5,
           'owa': 14.0,
           'resolution': 2},
 'instrument': {'inst_name': 'USORT'},
 'lyot_stop': {'alignment_tolerance': 0,
               'filename': 'USORT/LS_USORT_hex_ID0000_OD0990_ovsamp16_N0128.fits',
               'num_lyot_stops': 1},
 'method': {'edge_width_for_prior': 2,
            'ending_scale': 1,
            'force_no_hermitian_symmetry': False,
            'force_no_x_mirror_symmetry': False,
            'force_no_y_mirror_symmetry': False,
            'initial_throughput_estimate': 1,
            'maximize_planet_throughput': True,
            'num_throughput_iterations': 2,
            'starting_scale': 1},
 'pupil': {'N': 128,
           'filename': 'USORT/TelAp_USORT_offaxis_ovsamp16_N0128.fits'},
 'solver': {'crossover': 0,
            'method': 2,
            'num_threads': 0}}

File organization:
{'analysis_dir': '/user/bnickson/GitHub/LUVex_TelAps/aplc_optimization/surveys/usort_offaxis_survey_N0128_telserv3/FPM39_IWA38/analysis',
 'drivers_dir': '/user/bnickson/GitHub/LUVex_TelAps/aplc_optimization/surveys/usort_offaxis_survey_N0128_telserv3/FPM39_IWA38/drivers',
 'input_files_dir': '/user/bnickson/GitHub/LUVex_TelAps/aplc_optimization/masks',
 'log_dir': '/user/bnickson/GitHub/LUVex_TelAps/aplc_optimization/surveys/usort_offaxis_survey_N0128_telserv3/FPM39_IWA38/logs',
 'solution_dir': '/user/bnickson/GitHub/LUVex_TelAps/aplc_optimization/surveys/usort_offaxis_survey_N0128_telserv3/FPM39_IWA38/solutions',
 'survey_dir': '/user/bnickson/GitHub/LUVex_TelAps/aplc_optimization/surveys/usort_offaxis_survey_N0128_telserv3/FPM39_IWA38'}

Telescope pupil:
   Mirror symmetry in x: yes
   Mirror symmetry in y: yes

Lyot stop #0:
   Mirror symmetry in x: yes
Lyot stop #0:
   Mirror symmetry in y: yes

Complete APLC:
   Mirror symmetry in x: yes
   Mirror symmetry in y: yes

Starting optimization at scale 1 with 2726 variables and 2865 constraints.
Creating model...
Set parameter Username
Academic license - for non-commercial use only - expires 2024-10-25
Set parameter Crossover to value 0
Set parameter Method to value 2
Calculating and adding constraints...
Wavelength 1/5; Variable 1000/2726
Wavelength 1/5; Variable 2000/2726
Wavelength 2/5; Variable 1000/2726
Wavelength 2/5; Variable 2000/2726
Wavelength 3/5; Variable 1000/2726
Wavelength 3/5; Variable 2000/2726
Wavelength 4/5; Variable 1000/2726
Wavelength 4/5; Variable 2000/2726
Wavelength 5/5; Variable 1000/2726
Wavelength 5/5; Variable 2000/2726
Start optimization...
Gurobi Optimizer version 10.0.3 build v10.0.3rc0 (linux64)

CPU model: Intel(R) Xeon(R) Gold 6146 CPU @ 3.20GHz, instruction set [SSE2|AVX|AVX2|AVX512]
Thread count: 24 physical cores, 48 logical processors, using up to 24 threads

Optimize a model with 5730 rows, 2726 columns and 15619980 nonzeros
Model fingerprint: 0x33157048
Coefficient statistics:
  Matrix range     [3e-12, 5e-04]
  Objective range  [4e-03, 1e+00]
  Bounds range     [1e+00, 1e+00]
  RHS range        [1e-05, 1e-05]
Presolve removed 0 rows and 0 columns (presolve time = 6s) ...
Presolve time: 6.92s
Presolved: 2726 rows, 8456 columns, 15622706 nonzeros
Error: invalid user locale; possible fix is to set the system environment
       variable 'LC_ALL' to a valid locale (e.g., to 'C')
Ordering time: 0.07s

Barrier statistics:
 AA' NZ     : 3.714e+06
 Factor NZ  : 3.717e+06 (roughly 34 MB of memory)
 Factor Ops : 6.756e+09 (less than 1 second per iteration)
 Threads    : 24

                  Objective                Residual
Iter       Primal          Dual         Primal    Dual     Compl     Time
   0   5.36045397e+03  0.00000000e+00  0.00e+00 0.00e+00  9.31e-01    10s
   1   2.88076966e+03  6.76794825e+02  0.00e+00 1.63e-01  3.41e-01    10s
   2   1.93835346e+03  1.01456691e+03  0.00e+00 1.02e-01  1.64e-01    11s
   3   1.72926998e+03  1.16543044e+03  0.00e+00 6.93e-02  1.06e-01    13s
   4   1.65524618e+03  1.22671221e+03  0.00e+00 5.52e-02  8.34e-02    14s
   5   1.62043568e+03  1.23405043e+03  0.00e+00 5.23e-02  7.78e-02    15s
   6   1.52909153e+03  1.26541750e+03  0.00e+00 4.29e-02  6.15e-02    15s
   7   1.49464512e+03  1.27685847e+03  0.00e+00 3.71e-02  5.32e-02    16s
   8   1.42278715e+03  1.28157283e+03  0.00e+00 3.33e-02  4.61e-02    17s
   9   1.36849473e+03  1.27102915e+03  0.00e+00 2.88e-02  3.96e-02    17s
  10   1.34984383e+03  1.26903492e+03  0.00e+00 2.82e-02  3.82e-02    18s
  11   1.29979543e+03  1.25927915e+03  0.00e+00 2.30e-02  3.09e-02    18s
  12   1.22176098e+03  1.23865292e+03  0.00e+00 1.85e-02  2.33e-02    19s
  13   1.17865136e+03  1.22017750e+03  0.00e+00 1.59e-02  1.94e-02    20s
  14   1.16150157e+03  1.20260039e+03  0.00e+00 1.39e-02  1.72e-02    20s
  15   1.14428574e+03  1.19567238e+03  0.00e+00 1.32e-02  1.57e-02    21s
  16   1.12338452e+03  1.17463246e+03  0.00e+00 1.10e-02  1.29e-02    22s
  17   1.10841286e+03  1.16093454e+03  0.00e+00 9.66e-03  1.10e-02    22s
  18   1.09030881e+03  1.13627314e+03  0.00e+00 7.28e-03  7.95e-03    23s
  19   1.08239379e+03  1.12485309e+03  0.00e+00 6.20e-03  6.64e-03    24s
  20   1.07655872e+03  1.11555103e+03  0.00e+00 5.38e-03  5.70e-03    25s
  21   1.06782660e+03  1.10058361e+03  0.00e+00 4.18e-03  4.35e-03    25s
  22   1.06342455e+03  1.09334385e+03  0.00e+00 3.64e-03  3.74e-03    26s
  23   1.05608911e+03  1.08629865e+03  0.00e+00 3.12e-03  2.91e-03    27s
  24   1.04975677e+03  1.07733591e+03  0.00e+00 2.45e-03  2.16e-03    28s
  25   1.04768014e+03  1.06935265e+03  0.00e+00 1.91e-03  1.72e-03    29s
  26   1.04635727e+03  1.06603782e+03  0.00e+00 1.69e-03  1.53e-03    29s
  27   1.04402059e+03  1.06314463e+03  0.00e+00 1.52e-03  1.29e-03    30s
  28   1.04211300e+03  1.06104984e+03  0.00e+00 1.39e-03  1.10e-03    31s
  29   1.04076676e+03  1.05719961e+03  0.00e+00 1.16e-03  9.03e-04    32s
  30   1.04029519e+03  1.05638074e+03  0.00e+00 1.12e-03  8.52e-04    32s
  31   1.03971247e+03  1.05329903e+03  0.00e+00 9.44e-04  7.32e-04    33s
  32   1.03896017e+03  1.05199459e+03  0.00e+00 8.70e-04  6.47e-04    33s
  33   1.03852601e+03  1.05013962e+03  0.00e+00 7.72e-04  5.80e-04    34s
  34   1.03780415e+03  1.04814560e+03  0.00e+00 6.63e-04  4.80e-04    35s
  35   1.03725177e+03  1.04664842e+03  0.00e+00 5.83e-04  4.08e-04    35s
  36   1.03684692e+03  1.04417902e+03  0.00e+00 4.58e-04  3.32e-04    36s
  37   1.03672255e+03  1.04315395e+03  0.00e+00 4.07e-04  3.04e-04    37s
  38   1.03650472e+03  1.04260496e+03  0.00e+00 3.79e-04  2.77e-04    38s
  39   1.03617274e+03  1.04135746e+03  0.00e+00 3.16e-04  2.25e-04    39s
  40   1.03589882e+03  1.03970967e+03  0.00e+00 2.32e-04  1.68e-04    41s
  41   1.03557988e+03  1.03821627e+03  0.00e+00 1.56e-04  1.09e-04    42s
  42   1.03543084e+03  1.03712244e+03  0.00e+00 1.02e-04  7.46e-05    42s
  43   1.03530490e+03  1.03658992e+03  0.00e+00 7.58e-05  5.32e-05    43s
  44   1.03524248e+03  1.03628796e+03  0.00e+00 6.09e-05  4.17e-05    44s
  45   1.03516140e+03  1.03587295e+03  0.00e+00 4.05e-05  2.63e-05    44s
  46   1.03511106e+03  1.03554589e+03  0.00e+00 2.43e-05  1.51e-05    45s
  47   1.03508940e+03  1.03526656e+03  4.34e-07 1.05e-05  7.48e-06    46s
  48   1.03507467e+03  1.03517369e+03  3.45e-06 5.85e-06  4.17e-06    47s
  49   1.03506538e+03  1.03515415e+03  1.78e-06 4.88e-06  2.94e-06    48s
  50   1.03506197e+03  1.03513565e+03  1.07e-06 3.96e-06  2.23e-06    49s
  51   1.03506014e+03  1.03510799e+03  7.41e-07 2.58e-06  1.47e-06    50s
  52   1.03505883e+03  1.03508776e+03  8.77e-07 1.54e-06  8.44e-07    51s
  53   1.03505787e+03  1.03508257e+03  5.34e-07 1.28e-06  6.53e-07    54s
  54   1.03505782e+03  1.03507756e+03  1.97e-06 1.04e-06  5.48e-07    55s
  55   1.03505713e+03  1.03506054e+03  8.41e-07 2.02e-07  1.45e-07    56s
  56   1.03505703e+03  1.03505665e+03  1.35e-06 9.71e-09  5.58e-08    58s
  57   1.03505701e+03  1.03505655e+03  1.63e-06 4.27e-09  5.15e-08    58s
  58   1.03505701e+03  1.03505655e+03  3.71e-06 4.21e-09  5.14e-08    60s
  59   1.03505697e+03  1.03505634e+03  3.68e-06 5.41e-13  5.39e-08    62s
  60   1.03505699e+03  1.03505635e+03  6.32e-06 3.39e-13  5.26e-08    63s
  61   1.03505693e+03  1.03505640e+03  1.01e-05 2.99e-13  4.62e-08    64s
  62   1.03505670e+03  1.03505647e+03  1.26e-05 4.50e-13  1.86e-08    65s
  63   1.03505647e+03  1.03505647e+03  1.87e-05 3.04e-13  8.73e-09    66s
  64   1.03505647e+03  1.03505647e+03  3.57e-06 4.52e-13  3.63e-10    67s
  65   1.03505646e+03  1.03505647e+03  5.36e-06 5.04e-13  8.51e-11    67s
  66   1.03505648e+03  1.03505647e+03  3.00e-06 4.04e-13  9.24e-14    68s
  67   1.03505642e+03  1.03505647e+03  6.38e-06 5.05e-13  3.17e-14    69s
  68   1.03505648e+03  1.03505647e+03  5.09e-06 3.14e-13  1.89e-14    70s
  69   1.03505640e+03  1.03505647e+03  6.04e-06 1.27e-13  2.04e-17    70s

Barrier solved model in 69 iterations and 70.16 seconds (35.54 work units)
Optimal objective 1.03505713e+03

Optimization finished!
Restarting optimization for throughput iteration 1...
Gurobi Optimizer version 10.0.3 build v10.0.3rc0 (linux64)

CPU model: Intel(R) Xeon(R) Gold 6146 CPU @ 3.20GHz, instruction set [SSE2|AVX|AVX2|AVX512]
Thread count: 24 physical cores, 48 logical processors, using up to 24 threads

Optimize a model with 5730 rows, 2726 columns and 15619980 nonzeros
Model fingerprint: 0xcdbecffe
Coefficient statistics:
  Matrix range     [3e-12, 5e-04]
  Objective range  [4e-03, 1e+00]
  Bounds range     [1e+00, 1e+00]
  RHS range        [5e-06, 5e-06]
Presolve removed 0 rows and 0 columns (presolve time = 5s) ...
Presolve time: 5.59s
Presolved: 2726 rows, 8456 columns, 15622706 nonzeros
Ordering time: 0.10s

Barrier statistics:
 AA' NZ     : 3.714e+06
 Factor NZ  : 3.717e+06 (roughly 34 MB of memory)
 Factor Ops : 6.756e+09 (less than 1 second per iteration)
 Threads    : 24

                  Objective                Residual
Iter       Primal          Dual         Primal    Dual     Compl     Time
   0   5.30012557e+03  0.00000000e+00  0.00e+00 0.00e+00  9.24e-01     9s
   1   2.82567989e+03  6.72561409e+02  0.00e+00 1.62e-01  3.39e-01    10s
   2   1.87649630e+03  1.01896966e+03  0.00e+00 1.05e-01  1.66e-01    10s
   3   1.67692309e+03  1.14099655e+03  0.00e+00 7.60e-02  1.14e-01    11s
   4   1.59874342e+03  1.20059137e+03  0.00e+00 6.16e-02  9.20e-02    12s
   5   1.52953046e+03  1.20759865e+03  0.00e+00 5.81e-02  8.42e-02    12s
   6   1.47471028e+03  1.22145305e+03  0.00e+00 5.25e-02  7.60e-02    13s
   7   1.34063821e+03  1.23204082e+03  0.00e+00 4.29e-02  6.04e-02    13s
   8   1.25765312e+03  1.22020001e+03  0.00e+00 3.69e-02  5.11e-02    14s
   9   1.22416218e+03  1.21265368e+03  0.00e+00 3.50e-02  4.81e-02    14s
  10   1.17207641e+03  1.20682845e+03  0.00e+00 3.26e-02  4.36e-02    15s
  11   1.12716209e+03  1.19082342e+03  0.00e+00 2.79e-02  3.73e-02    16s
  12   1.04952412e+03  1.16232567e+03  0.00e+00 2.39e-02  3.05e-02    16s
  13   1.01721180e+03  1.14479590e+03  0.00e+00 2.15e-02  2.67e-02    17s
  14   9.99793497e+02  1.13384536e+03  0.00e+00 2.05e-02  2.51e-02    18s
  15   9.91452949e+02  1.11687737e+03  0.00e+00 1.86e-02  2.29e-02    19s
  16   9.74460039e+02  1.10800991e+03  0.00e+00 1.78e-02  2.13e-02    20s
  17   9.52478394e+02  1.09131787e+03  0.00e+00 1.61e-02  1.85e-02    21s
  18   9.33622847e+02  1.07719009e+03  0.00e+00 1.49e-02  1.68e-02    22s
  19   9.23958351e+02  1.06298469e+03  0.00e+00 1.37e-02  1.54e-02    22s
  20   9.18807259e+02  1.05853389e+03  0.00e+00 1.34e-02  1.49e-02    23s
  21   8.99756602e+02  1.02849535e+03  0.00e+00 1.11e-02  1.22e-02    23s
  22   8.91376321e+02  1.01476463e+03  0.00e+00 1.03e-02  1.14e-02    24s
  23   8.78881757e+02  9.91579174e+02  0.00e+00 8.98e-03  1.00e-02    24s
  24   8.69125234e+02  9.78315333e+02  0.00e+00 8.17e-03  8.80e-03    25s
  25   8.55773657e+02  9.60077040e+02  0.00e+00 7.17e-03  7.33e-03    25s
  26   8.50421801e+02  9.46018502e+02  0.00e+00 6.43e-03  6.55e-03    26s
  27   8.44601181e+02  9.31490778e+02  0.00e+00 5.68e-03  5.57e-03    27s
  28   8.36420932e+02  9.06990483e+02  0.00e+00 4.40e-03  4.13e-03    28s
  29   8.31434132e+02  8.93631826e+02  0.00e+00 3.73e-03  3.35e-03    29s
  30   8.29124934e+02  8.85534803e+02  0.00e+00 3.32e-03  2.93e-03    30s
  31   8.26788120e+02  8.70068149e+02  0.00e+00 2.55e-03  2.28e-03    31s
  32   8.24025355e+02  8.61595465e+02  0.00e+00 2.15e-03  1.88e-03    31s
  33   8.20789535e+02  8.53364928e+02  0.00e+00 1.76e-03  1.43e-03    32s
  34   8.19247838e+02  8.47506091e+02  0.00e+00 1.50e-03  1.21e-03    33s
  35   8.18108023e+02  8.43238868e+02  0.00e+00 1.31e-03  1.03e-03    33s
  36   8.17097286e+02  8.37049938e+02  0.00e+00 1.03e-03  8.17e-04    34s
  37   8.15943278e+02  8.30833360e+02  0.00e+00 7.65e-04  5.95e-04    35s
  38   8.14698092e+02  8.24614148e+02  0.00e+00 4.98e-04  3.72e-04    35s
  39   8.14145193e+02  8.20438568e+02  0.00e+00 3.19e-04  2.46e-04    36s
  40   8.13703542e+02  8.18272461e+02  0.00e+00 2.27e-04  1.69e-04    37s
  41   8.13456794e+02  8.17261647e+02  0.00e+00 1.84e-04  1.32e-04    38s
  42   8.13293289e+02  8.15840133e+02  0.00e+00 1.25e-04  9.20e-05    40s
  43   8.13163175e+02  8.14844967e+02  0.00e+00 8.30e-05  6.34e-05    40s
  44   8.12995760e+02  8.14434401e+02  0.00e+00 6.58e-05  4.18e-05    41s
  45   8.12959570e+02  8.14129111e+02  0.00e+00 5.31e-05  3.34e-05    42s
  46   8.12937232e+02  8.13803621e+02  0.00e+00 3.96e-05  2.56e-05    42s
  47   8.12918853e+02  8.13440225e+02  0.00e+00 2.47e-05  1.77e-05    43s
  48   8.12898544e+02  8.13316577e+02  0.00e+00 1.96e-05  1.38e-05    43s
  49   8.12878455e+02  8.13163327e+02  4.08e-07 1.33e-05  9.28e-06    44s
  50   8.12864896e+02  8.13001736e+02  1.31e-06 6.68e-06  5.23e-06    46s
  51   8.12852852e+02  8.12931289e+02  6.21e-07 3.79e-06  2.92e-06    50s
  52   8.12846955e+02  8.12891149e+02  6.81e-07 2.15e-06  1.68e-06    53s
  53   8.12844362e+02  8.12872716e+02  5.55e-07 1.39e-06  1.12e-06    56s
  54   8.12840150e+02  8.12857975e+02  6.79e-07 7.87e-07  4.69e-07    59s
  55   8.12840134e+02  8.12844317e+02  9.93e-07 2.24e-07  2.15e-07    63s
  56   8.12840137e+02  8.12844208e+02  2.43e-06 2.20e-07  2.13e-07    65s
  57   8.12840111e+02  8.12842953e+02  4.39e-06 1.71e-07  1.96e-07    67s
  58   8.12840069e+02  8.12842774e+02  6.26e-06 1.64e-07  1.90e-07    70s
  59   8.12840050e+02  8.12842762e+02  7.45e-06 1.64e-07  1.90e-07    72s
  60   8.12840067e+02  8.12842238e+02  1.35e-05 1.43e-07  1.82e-07    76s
  61   8.12840142e+02  8.12841059e+02  2.06e-05 9.34e-08  1.41e-07    79s
  62   8.12840396e+02  8.12840974e+02  3.88e-05 8.99e-08  1.31e-07    84s
  63   8.12840292e+02  8.12840576e+02  5.08e-05 7.30e-08  1.23e-07    87s
  64   8.12840321e+02  8.12840575e+02  7.08e-05 7.30e-08  1.22e-07    91s
  65   8.12840526e+02  8.12840350e+02  7.31e-05 6.38e-08  1.17e-07    97s
  66   8.12840757e+02  8.12840153e+02  7.38e-05 5.55e-08  1.10e-07   101s
  67   8.12840765e+02  8.12840132e+02  7.39e-05 5.46e-08  1.08e-07   104s
  68   8.12839678e+02  8.12839807e+02  8.91e-05 4.12e-08  4.59e-08   107s
  69   8.12837825e+02  8.12839782e+02  1.00e-04 4.01e-08  3.54e-08   110s
  70   8.12839112e+02  8.12839688e+02  1.68e-04 3.61e-08  3.19e-08   114s
  71   8.12837412e+02  8.12839676e+02  2.11e-04 3.56e-08  3.13e-08   117s
  72   8.12838186e+02  8.12839467e+02  1.70e-04 2.68e-08  2.47e-08   123s
  73   8.12838687e+02  8.12839070e+02  9.40e-05 1.03e-08  1.08e-08   127s
  74   8.12839066e+02  8.12838828e+02  8.19e-05 1.54e-10  5.98e-09   130s
  75   8.12838904e+02  8.12838824e+02  8.09e-05 9.47e-13  2.66e-10   135s
  76   8.12838595e+02  8.12838824e+02  7.46e-05 3.82e-12  1.75e-10   140s
  77   8.12839297e+02  8.12838823e+02  1.35e-04 3.23e-12  1.57e-10   144s
  78   8.12839194e+02  8.12838826e+02  1.03e-04 2.94e-12  1.28e-10   147s
  79   8.12839851e+02  8.12838826e+02  1.85e-04 2.94e-12  1.18e-10   150s
  80   8.12839368e+02  8.12838823e+02  1.52e-04 2.11e-12  9.38e-11   153s

Barrier performed 80 iterations in 153.24 seconds (40.15 work units)
Sub-optimal termination - objective 8.12840134e+02

/user/bnickson/GitHub/LUVex_TelAps/aplc_optimization/surveys/usort_offaxis_survey_N0128_telserv3/FPM39_IWA38/drivers/09_USORT_N128_FPM390M0150_IWA0380_OWA01400_C10_BW10_Nlam5_LS_ID_ID00_ODOD09_ls_0_ovsamp16_N.py:102: DeprecationWarning: circular_aperture is deprecated. Its new name is make_circular_aperture.
  dark_zone_mask = circular_aperture(img_owa * 2)(focal_grid) - circular_aperture(img_iwa * 2)(focal_grid)
/user/bnickson/GitHub/LUVex_TelAps/aplc_optimization/surveys/usort_offaxis_survey_N0128_telserv3/FPM39_IWA38/drivers/09_USORT_N128_FPM390M0150_IWA0380_OWA01400_C10_BW10_Nlam5_LS_ID_ID00_ODOD09_ls_0_ovsamp16_N.py:110: DeprecationWarning: circular_aperture is deprecated. Its new name is make_circular_aperture.
  focal_plane_mask = 1 - evaluate_supersampled(circular_aperture(2 * fpm_radius), focal_mask_grid, 8)
/user/bnickson/GitHub/LUVex_TelAps/aplc_optimization/surveys/usort_offaxis_survey_N0128_telserv3/FPM39_IWA38/drivers/09_USORT_N128_FPM390M0150_IWA0380_OWA01400_C10_BW10_Nlam5_LS_ID_ID00_ODOD09_ls_0_ovsamp16_N.py:118: DeprecationWarning: circular_aperture is deprecated. Its new name is make_circular_aperture.
  field_stop = circular_aperture(2 * field_stop_radius)(field_stop_grid)
WARNING: VerifyWarning: Keyword name 'LS_ALIGN_TOl' is greater than 8 characters or contains characters not allowed by the FITS standard; a HIERARCH card will be created. [astropy.io.fits.card]
WARNING: VerifyWarning: Keyword name 'LS_NUM_STOPS' is greater than 8 characters or contains characters not allowed by the FITS standard; a HIERARCH card will be created. [astropy.io.fits.card]
WARNING: VerifyWarning: Keyword name 'PROG_START' is greater than 8 characters or contains characters not allowed by the FITS standard; a HIERARCH card will be created. [astropy.io.fits.card]
WARNING: VerifyWarning: Keyword name 'PROG_EDGE' is greater than 8 characters or contains characters not allowed by the FITS standard; a HIERARCH card will be created. [astropy.io.fits.card]
WARNING: VerifyWarning: Keyword name 'THRPT_ITER' is greater than 8 characters or contains characters not allowed by the FITS standard; a HIERARCH card will be created. [astropy.io.fits.card]
WARNING: VerifyWarning: Keyword name 'THRPT_ESTIM' is greater than 8 characters or contains characters not allowed by the FITS standard; a HIERARCH card will be created. [astropy.io.fits.card]
WARNING: VerifyWarning: Keyword name 'MAX_THRPT' is greater than 8 characters or contains characters not allowed by the FITS standard; a HIERARCH card will be created. [astropy.io.fits.card]
WARNING: VerifyWarning: Keyword name 'SLV_THRDS' is greater than 8 characters or contains characters not allowed by the FITS standard; a HIERARCH card will be created. [astropy.io.fits.card]
WARNING: VerifyWarning: Keyword name 'SLV_XOVER' is greater than 8 characters or contains characters not allowed by the FITS standard; a HIERARCH card will be created. [astropy.io.fits.card]
Optimization finished!
